solution status: time limit reached
objective value:                                   81
shell_j_thing.elute_ctrl_hole                       1 	(obj:0)
shell_i_thing.thing.chamber[1].thingy.v8                    1 	(obj:0)
shell_i_thing.collect_flush_hole                    1 	(obj:0)
shell_j_thing.wash_ctrl_hole                        1 	(obj:0)
shell_i_thing.thing.chamber[2].thingy.v5                    1 	(obj:0)
shell_i_thing.thing.chamber[2].thingy.v7                    1 	(obj:0)
shell_i_$_96__9                                     1 	(obj:0)
shell_j_thing.thing.chamber[1].thingy.v7                    1 	(obj:0)
shell_i_$_148__9                                    1 	(obj:0)
shell_j_thing.thing.chamber[1].thingy.v1                    1 	(obj:0)
shell_i_thing.thing.chamber[0].thingy.r2c                    1 	(obj:0)
shell_j_thing.elute_flush_hole                      1 	(obj:0)
shell_i_thing.collect_ctrl_hole                     1 	(obj:0)
shell_j_thing.thing.chamber[0].thingy.v9                    1 	(obj:0)
shell_j_thing.thing.chamber[0].thingy.r3c                    1 	(obj:0)
shell_j_thing.thing.chamber[2].thingy.v1                    1 	(obj:0)
shell_i_$_98__9                                     1 	(obj:0)
shell_i_thing.thing.chamber[0].thingy.r4c                    1 	(obj:0)
shell_i_thing.dead_end_flush_hole                    1 	(obj:0)
shell_j_thing.dead_end_ctrl_hole                    1 	(obj:0)
shell_j_thing.thing.chamber[0].thingy.v5                    1 	(obj:0)
shell_j_thing.thing.chamber[0].thingy.v10                    1 	(obj:0)
shell_i_thing.thing.chamber[0].thingy.v11                    1 	(obj:0)
shell_i_thing.thing.chamber[1].thingy.v11                    1 	(obj:0)
shell_j_thing.waste_ctrl_hole                       1 	(obj:0)
shell_j_thing.horiz_ctrl_hole                       1 	(obj:0)
shell_j_thing.thing.chamber[0].thingy.v2                    1 	(obj:0)
shell_j_thing.waste_flush_hole                      1 	(obj:0)
shell_i_thing.bead_ctrl_hole                        1 	(obj:0)
shell_i_thing.thing.chamber[0].thingy.v7                    1 	(obj:0)
shell_i_thing.thing.chamber[2].thingy.v11                    1 	(obj:0)
shell_j_$_147__9                                    1 	(obj:0)
shell_j_thing.thing.chamber[0].thingy.v3                    1 	(obj:0)
shell_i_$_122__9                                    1 	(obj:0)
shell_j_thing.thing.chamber[1].thingy.v6                    1 	(obj:0)
shell_i_thing.thing.chamber[1].thingy.v9                    1 	(obj:0)
shell_i_$_123__9                                    1 	(obj:0)
shell_j_thing.lysis_ctrl_hole                       1 	(obj:0)
shell_j_thing.thing.chamber[1].thingy.v4                    1 	(obj:0)
shell_j_thing.wash_flush_hole                       1 	(obj:0)
shell_j_thing.thing.chamber[1].thingy.v5                    1 	(obj:0)
shell_j_thing.lysis_flush_hole                      1 	(obj:0)
shell_j_thing.thing.chamber[0].thingy.v1                    1 	(obj:0)
shell_i_thing.thing.chamber[2].thingy.v9                    1 	(obj:0)
thing.elute_ctrl_hole_y                            11 	(obj:0)
thing.thing.chamber[1].thingy.v7_x                    7 	(obj:0)
thing.dead_end_flush_hole_x                        11 	(obj:0)
thing.dead_end_flush_hole_y                         7 	(obj:0)
thing.dead_end_flush_hole_z                        24 	(obj:0)
thing.thing.chamber[1].thingy.v7_y                   11 	(obj:0)
thing.thing.chamber[1].thingy.v7_z                   21 	(obj:0)
thing.dead_end_ctrl_hole_x                          7 	(obj:0)
thing.dead_end_ctrl_hole_y                         11 	(obj:0)
thing.dead_end_ctrl_hole_z                         18 	(obj:0)
thing.thing.chamber[1].thingy.v8_x                   11 	(obj:0)
thing.wash_ctrl_hole_x                              5 	(obj:0)
thing.thing.chamber[0].thingy.v5_x                    9 	(obj:0)
thing.thing.chamber[0].thingy.v5_y                   11 	(obj:0)
thing.thing.chamber[0].thingy.v5_z                   23 	(obj:0)
$_148__9_x                                         11 	(obj:0)
$_148__9_y                                          7 	(obj:0)
thing.thing.chamber[0].thingy.v10_x                    7 	(obj:0)
thing.thing.chamber[0].thingy.v10_y                   11 	(obj:0)
thing.thing.chamber[0].thingy.v10_z                   20 	(obj:0)
$_148__9_z                                         22 	(obj:0)
thing.wash_ctrl_hole_y                             11 	(obj:0)
thing.thing.chamber[0].thingy.v11_x                   11 	(obj:0)
thing.thing.chamber[0].thingy.v11_y                    7 	(obj:0)
thing.thing.chamber[0].thingy.v11_z                   17 	(obj:0)
thing.wash_ctrl_hole_z                             23 	(obj:0)
thing.thing.chamber[1].thingy.v1_x                    9 	(obj:0)
thing.thing.chamber[1].thingy.v11_x                   11 	(obj:0)
thing.thing.chamber[1].thingy.v11_y                    9 	(obj:0)
thing.thing.chamber[1].thingy.v11_z                   17 	(obj:0)
thing.thing.chamber[1].thingy.v1_y                   11 	(obj:0)
thing.thing.chamber[1].thingy.v1_z                   22 	(obj:0)
thing.waste_ctrl_hole_x                             7 	(obj:0)
thing.waste_ctrl_hole_y                            11 	(obj:0)
thing.waste_ctrl_hole_z                            19 	(obj:0)
thing.thing.chamber[1].thingy.v8_y                    9 	(obj:0)
thing.thing.chamber[1].thingy.v8_z                   20 	(obj:0)
thing.horiz_ctrl_hole_x                             8 	(obj:0)
thing.horiz_ctrl_hole_y                            11 	(obj:0)
thing.horiz_ctrl_hole_z                            23 	(obj:0)
thing.thing.chamber[0].thingy.r2c_x                   11 	(obj:0)
thing.thing.chamber[0].thingy.r2c_y                    7 	(obj:0)
thing.thing.chamber[0].thingy.v2_x                    8 	(obj:0)
thing.thing.chamber[0].thingy.v2_y                   11 	(obj:0)
thing.thing.chamber[0].thingy.v2_z                   22 	(obj:0)
thing.thing.chamber[0].thingy.r2c_z                   23 	(obj:0)
thing.thing.chamber[2].thingy.v5_x                   11 	(obj:0)
thing.waste_flush_hole_x                           10 	(obj:0)
thing.waste_flush_hole_y                           11 	(obj:0)
thing.waste_flush_hole_z                           22 	(obj:0)
thing.thing.chamber[2].thingy.v5_y                    9 	(obj:0)
thing.elute_flush_hole_x                            5 	(obj:0)
thing.bead_ctrl_hole_x                             11 	(obj:0)
thing.bead_ctrl_hole_y                              7 	(obj:0)
thing.bead_ctrl_hole_z                             18 	(obj:0)
thing.elute_flush_hole_y                           11 	(obj:0)
thing.elute_flush_hole_z                           20 	(obj:0)
thing.thing.chamber[0].thingy.v7_x                   11 	(obj:0)
thing.thing.chamber[0].thingy.v7_y                    8 	(obj:0)
thing.thing.chamber[0].thingy.v7_z                   20 	(obj:0)
thing.thing.chamber[2].thingy.v5_z                   22 	(obj:0)
thing.elute_ctrl_hole_z                            18 	(obj:0)
thing.thing.chamber[2].thingy.v11_x                   11 	(obj:0)
thing.thing.chamber[2].thingy.v11_y                    7 	(obj:0)
thing.thing.chamber[2].thingy.v11_z                   19 	(obj:0)
thing.collect_ctrl_hole_x                          11 	(obj:0)
thing.collect_ctrl_hole_y                           3 	(obj:0)
$_147__9_x                                          7 	(obj:0)
$_147__9_y                                         11 	(obj:0)
$_147__9_z                                         24 	(obj:0)
thing.collect_ctrl_hole_z                          15 	(obj:0)
thing.elute_ctrl_hole_x                             5 	(obj:0)
thing.thing.chamber[0].thingy.v3_x                    8 	(obj:0)
thing.thing.chamber[0].thingy.v3_y                   11 	(obj:0)
thing.thing.chamber[0].thingy.v3_z                   20 	(obj:0)
thing.thing.chamber[2].thingy.v7_x                   11 	(obj:0)
thing.thing.chamber[0].thingy.v9_x                   10 	(obj:0)
$_122__9_x                                         11 	(obj:0)
$_122__9_y                                          8 	(obj:0)
$_122__9_z                                         21 	(obj:0)
thing.thing.chamber[0].thingy.v9_y                   11 	(obj:0)
thing.thing.chamber[0].thingy.v9_z                   20 	(obj:0)
thing.thing.chamber[1].thingy.v6_x                    9 	(obj:0)
thing.thing.chamber[1].thingy.v6_y                   11 	(obj:0)
thing.thing.chamber[1].thingy.v6_z                   19 	(obj:0)
thing.thing.chamber[2].thingy.v7_y                    9 	(obj:0)
thing.thing.chamber[2].thingy.v7_z                   21 	(obj:0)
thing.thing.chamber[1].thingy.v9_x                   11 	(obj:0)
thing.thing.chamber[1].thingy.v9_y                    7 	(obj:0)
thing.thing.chamber[1].thingy.v9_z                   21 	(obj:0)
thing.thing.chamber[0].thingy.r3c_x                    7 	(obj:0)
thing.thing.chamber[0].thingy.r3c_y                   11 	(obj:0)
$_123__9_x                                         11 	(obj:0)
$_123__9_y                                          6 	(obj:0)
$_123__9_z                                         15 	(obj:0)
thing.thing.chamber[0].thingy.r3c_z                   23 	(obj:0)
thing.collect_flush_hole_x                         11 	(obj:0)
thing.lysis_ctrl_hole_x                             5 	(obj:0)
thing.lysis_ctrl_hole_y                            11 	(obj:0)
thing.lysis_ctrl_hole_z                            22 	(obj:0)
thing.collect_flush_hole_y                          8 	(obj:0)
thing.thing.chamber[2].thingy.v1_x                    9 	(obj:0)
thing.thing.chamber[1].thingy.v4_x                    8 	(obj:0)
thing.thing.chamber[1].thingy.v4_y                   11 	(obj:0)
thing.thing.chamber[1].thingy.v4_z                   21 	(obj:0)
thing.thing.chamber[2].thingy.v1_y                   11 	(obj:0)
thing.thing.chamber[2].thingy.v1_z                   21 	(obj:0)
thing.wash_flush_hole_x                             5 	(obj:0)
thing.wash_flush_hole_y                            11 	(obj:0)
thing.wash_flush_hole_z                            19 	(obj:0)
$_96__9_x                                          11 	(obj:0)
$_96__9_y                                           8 	(obj:0)
thing.thing.chamber[1].thingy.v5_x                    7 	(obj:0)
thing.thing.chamber[1].thingy.v5_y                   11 	(obj:0)
thing.thing.chamber[1].thingy.v5_z                   22 	(obj:0)
$_98__9_x                                          11 	(obj:0)
$_98__9_y                                           7 	(obj:0)
thing.lysis_flush_hole_x                            8 	(obj:0)
thing.lysis_flush_hole_y                           11 	(obj:0)
thing.lysis_flush_hole_z                           18 	(obj:0)
$_98__9_z                                          15 	(obj:0)
$_96__9_z                                          17 	(obj:0)
thing.thing.chamber[0].thingy.v1_x                    9 	(obj:0)
thing.thing.chamber[0].thingy.v1_y                   11 	(obj:0)
thing.thing.chamber[0].thingy.v1_z                   20 	(obj:0)
thing.collect_flush_hole_z                         15 	(obj:0)
thing.thing.chamber[0].thingy.r4c_x                   11 	(obj:0)
thing.thing.chamber[2].thingy.v9_x                   11 	(obj:0)
thing.thing.chamber[2].thingy.v9_y                    7 	(obj:0)
thing.thing.chamber[2].thingy.v9_z                   20 	(obj:0)
thing.thing.chamber[0].thingy.r4c_y                    8 	(obj:0)
thing.thing.chamber[0].thingy.r4c_z                   18 	(obj:0)
x223                                                1 	(obj:1)
x225                                                2 	(obj:1)
x227                                                4 	(obj:1)
x239                                                2 	(obj:1)
x241                                                1 	(obj:1)
x243                                                2 	(obj:1)
x244                                                1 	(obj:1)
x245                                                2 	(obj:1)
x252                                                1 	(obj:1)
x263                                                2 	(obj:1)
x264                                                2 	(obj:1)
x265                                                1 	(obj:1)
x270                                                2 	(obj:1)
x280                                                2 	(obj:1)
x288                                                3 	(obj:1)
x290                                                3 	(obj:1)
x300                                                2 	(obj:1)
x312                                                2 	(obj:1)
x313                                                3 	(obj:1)
x314                                                1 	(obj:1)
x318                                                4 	(obj:1)
x320                                                2 	(obj:1)
x325                                                2 	(obj:1)
x340                                                1 	(obj:1)
x344                                                3 	(obj:1)
x352                                                2 	(obj:1)
x359                                                1 	(obj:1)
x360                                                2 	(obj:1)
x362                                                1 	(obj:1)
x377                                                3 	(obj:1)
x378                                                2 	(obj:1)
x386                                                1 	(obj:1)
x392                                                1 	(obj:1)
x393                                                2 	(obj:1)
x395                                                1 	(obj:1)
x397                                                1 	(obj:1)
x405                                                1 	(obj:1)
x409                                                1 	(obj:1)
x415                                                2 	(obj:1)
x428                                                1 	(obj:1)
x430                                                2 	(obj:1)
x442                                                1 	(obj:1)
x446                                                1 	(obj:1)
x450                                                2 	(obj:1)
x456                                                2 	(obj:1)
